peakDumbCharging = 14800; 
Machine = anon_enum(16); 
machineSpeed = [3700,3700,3700,3700,3700,3700,3700,3700,3700,3700,3700,3700,3700,3700,3700,3700]; 
machineLoad = [3700,3700,3700,3700,3700,3700,3700,3700,3700,3700,3700,3700,3700,3700,3700,3700]; 
Car = anon_enum(13); 
demandCar = [12040,7600,10880,15240,4360,25240,3280,37200,11920,12920,7120,6120,10920]; 
arrivalCar = [72,66,54,49,48,48,46,43,42,40,39,39,39]; 
departureCar = [76,70,61,55,52,63,48,56,47,47,43,43,44]; 
